100
1000
200
199
199
198
197
197
196
196
196
195
195
193
193
193
193
192
191
190
190
190
189
188
188
188
188
187
187
187
187
186
186
185
185
185
185
183
183
182
182
182
182
181
180
180
175
175
174
174
173
173
172
172
172
172
171
169
169
169
169
169
169
168
168
168
168
168
167
167
165
164
164
163
163
162
161
161
161
161
160
159
159
159
157
157
157
156
155
155
154
154
153
153
153
153
153
153
152
151
150
150
